c Generated map
c Size: 8 * 8, weights in range: 1 to 10, walls: False, with ratio 0.0
c dim 9 of 10
c
p sp 64 112
c graph contains 64 nodes and 112 arcs
c
a 1 9 9
a 9 1 9
a 1 2 10
a 2 1 10
a 2 10 2
a 10 2 2
a 2 3 5
a 3 2 5
a 3 11 6
a 11 3 6
a 3 4 9
a 4 3 9
a 4 12 10
a 12 4 10
a 4 5 7
a 5 4 7
a 5 13 2
a 13 5 2
a 5 6 8
a 6 5 8
a 6 14 6
a 14 6 6
a 6 7 8
a 7 6 8
a 7 15 4
a 15 7 4
a 7 8 5
a 8 7 5
a 8 16 2
a 16 8 2
a 9 17 5
a 17 9 5
a 9 10 9
a 10 9 9
a 10 18 4
a 18 10 4
a 10 11 7
a 11 10 7
a 11 19 6
a 19 11 6
a 11 12 9
a 12 11 9
a 12 20 6
a 20 12 6
a 12 13 4
a 13 12 4
a 13 21 7
a 21 13 7
a 13 14 2
a 14 13 2
a 14 22 4
a 22 14 4
a 14 15 7
a 15 14 7
a 15 23 5
a 23 15 5
a 15 16 6
a 16 15 6
a 16 24 6
a 24 16 6
a 17 25 5
a 25 17 5
a 17 18 5
a 18 17 5
a 18 26 5
a 26 18 5
a 18 19 4
a 19 18 4
a 19 27 3
a 27 19 3
a 19 20 5
a 20 19 5
a 20 28 3
a 28 20 3
a 20 21 3
a 21 20 3
a 21 29 4
a 29 21 4
a 21 22 4
a 22 21 4
a 22 30 8
a 30 22 8
a 22 23 1
a 23 22 1
a 23 31 4
a 31 23 4
a 23 24 9
a 24 23 9
a 24 32 2
a 32 24 2
a 25 33 5
a 33 25 5
a 25 26 7
a 26 25 7
a 26 34 7
a 34 26 7
a 26 27 6
a 27 26 6
a 27 35 6
a 35 27 6
a 27 28 9
a 28 27 9
a 28 36 5
a 36 28 5
a 28 29 9
a 29 28 9
a 29 37 6
a 37 29 6
a 29 30 8
a 30 29 8
a 30 38 9
a 38 30 9
a 30 31 7
a 31 30 7
a 31 39 10
a 39 31 10
a 31 32 6
a 32 31 6
a 32 40 7
a 40 32 7
a 33 41 6
a 41 33 6
a 33 34 2
a 34 33 2
a 34 42 5
a 42 34 5
a 34 35 7
a 35 34 7
a 35 43 1
a 43 35 1
a 35 36 3
a 36 35 3
a 36 44 10
a 44 36 10
a 36 37 3
a 37 36 3
a 37 45 1
a 45 37 1
a 37 38 5
a 38 37 5
a 38 46 3
a 46 38 3
a 38 39 7
a 39 38 7
a 39 47 8
a 47 39 8
a 39 40 10
a 40 39 10
a 40 48 7
a 48 40 7
a 41 49 9
a 49 41 9
a 41 42 3
a 42 41 3
a 42 50 8
a 50 42 8
a 42 43 5
a 43 42 5
a 43 51 7
a 51 43 7
a 43 44 2
a 44 43 2
a 44 52 5
a 52 44 5
a 44 45 5
a 45 44 5
a 45 53 8
a 53 45 8
a 45 46 2
a 46 45 2
a 46 54 9
a 54 46 9
a 46 47 3
a 47 46 3
a 47 55 1
a 55 47 1
a 47 48 8
a 48 47 8
a 48 56 1
a 56 48 1
a 49 57 8
a 57 49 8
a 49 50 4
a 50 49 4
a 50 58 6
a 58 50 6
a 50 51 3
a 51 50 3
a 51 59 1
a 59 51 1
a 51 52 6
a 52 51 6
a 52 60 3
a 60 52 3
a 52 53 4
a 53 52 4
a 53 61 6
a 61 53 6
a 53 54 3
a 54 53 3
a 54 62 9
a 62 54 9
a 54 55 5
a 55 54 5
a 55 63 7
a 63 55 7
a 55 56 5
a 56 55 5
a 56 64 7
a 64 56 7
a 57 58 5
a 58 57 5
a 58 59 1
a 59 58 1
a 59 60 8
a 60 59 8
a 60 61 2
a 61 60 2
a 61 62 9
a 62 61 9
a 62 63 3
a 63 62 3
a 63 64 9
a 64 63 9
